100
32
24
21
1
27
12
9
14
13
1
14
18
10
9
7
4
11
3
1
9
8
1
1
1
13
20
19
1
1
2
18
6
3
2
1
20
22
1
1
1
1
9
17
1
2
1
2
17
4
1
2
2
21
1
1
6
3
7
1
2
6
20
1
2
3
1
1
1
17
1
1
3
1
2
3
1
1
5
9
18
1
18
1
1
2
1
1
2
3
1
1
2
1
2
2
1
2
1
2
2
1